NAME : LPS-n13-m400
COMMENT : (Lartu-Peter-Santi Plot, instance 4400 out of 39200. 13 customers.)
TYPE : CVRP
DIMENSION : 13
EDGE_WEIGHT_TYPE : EUC_2D
CAPACITY : 134
NODE_COORD_SECTION
 1 37 48
 2 44 12
 3 48 90
 4 8 25
 5 83 71
 6 91 7
 7 11 35
 8 40 86
 9 0 35
 10 66 47
 11 90 80
 12 79 8
 13 79 88
DEMAND_SECTION
1 0
2 95
3 97
4 15
5 33
6 6
7 130
8 47
9 128
10 62
11 83
12 98
13 125
DEPOT_SECTION
 1
 -1
EOF
